c nIsolatedPIs 0
c maxPI 32
p cnf 245 640
c gate 33 -10 -26 0
-10 -33 0
-26 -33 0
10 26 33 0
c gate 34 10 26 0
10 -34 0
26 -34 0
-10 -26 34 0
c gate 35 -33 -34 0
-33 -35 0
-34 -35 0
33 34 35 0
c gate 36 9 -25 0
9 -36 0
-25 -36 0
-9 25 36 0
c gate 37 8 -24 0
8 -37 0
-24 -37 0
-8 24 37 0
c gate 38 -36 -37 0
-36 -38 0
-37 -38 0
36 37 38 0
c gate 39 -35 -38 0
-35 -39 0
-38 -39 0
35 38 39 0
c gate 40 35 38 0
35 -40 0
38 -40 0
-35 -38 40 0
c gate 41 -39 -40 0
-39 -41 0
-40 -41 0
39 40 41 0
c gate 42 -9 25 0
-9 -42 0
25 -42 0
9 -25 42 0
c gate 43 -8 -24 0
-8 -43 0
-24 -43 0
8 24 43 0
c gate 44 8 24 0
8 -44 0
24 -44 0
-8 -24 44 0
c gate 45 -43 -44 0
-43 -45 0
-44 -45 0
43 44 45 0
c gate 46 -7 23 0
-7 -46 0
23 -46 0
7 -23 46 0
c gate 47 6 -22 0
6 -47 0
-22 -47 0
-6 22 47 0
c gate 48 7 -23 0
7 -48 0
-23 -48 0
-7 23 48 0
c gate 49 -46 -48 0
-46 -49 0
-48 -49 0
46 48 49 0
c gate 50 -47 49 0
-47 -50 0
49 -50 0
47 -49 50 0
c gate 51 -2 18 0
-2 -51 0
18 -51 0
2 -18 51 0
c gate 52 -1 17 0
-1 -52 0
17 -52 0
1 -17 52 0
c gate 53 -51 -52 0
-51 -53 0
-52 -53 0
51 52 53 0
c gate 54 2 -18 0
2 -54 0
-18 -54 0
-2 18 54 0
c gate 55 3 -19 0
3 -55 0
-19 -55 0
-3 19 55 0
c gate 56 -54 -55 0
-54 -56 0
-55 -56 0
54 55 56 0
c gate 57 -53 56 0
-53 -57 0
56 -57 0
53 -56 57 0
c gate 58 -3 19 0
-3 -58 0
19 -58 0
3 -19 58 0
c gate 59 -4 20 0
-4 -59 0
20 -59 0
4 -20 59 0
c gate 60 -58 -59 0
-58 -60 0
-59 -60 0
58 59 60 0
c gate 61 -57 60 0
-57 -61 0
60 -61 0
57 -60 61 0
c gate 62 4 -20 0
4 -62 0
-20 -62 0
-4 20 62 0
c gate 63 5 -21 0
5 -63 0
-21 -63 0
-5 21 63 0
c gate 64 -62 -63 0
-62 -64 0
-63 -64 0
62 63 64 0
c gate 65 -61 64 0
-61 -65 0
64 -65 0
61 -64 65 0
c gate 66 -5 21 0
-5 -66 0
21 -66 0
5 -21 66 0
c gate 67 -6 -22 0
-6 -67 0
-22 -67 0
6 22 67 0
c gate 68 6 22 0
6 -68 0
22 -68 0
-6 -22 68 0
c gate 69 -67 -68 0
-67 -69 0
-68 -69 0
67 68 69 0
c gate 70 -66 -69 0
-66 -70 0
-69 -70 0
66 69 70 0
c gate 71 -65 70 0
-65 -71 0
70 -71 0
65 -70 71 0
c gate 72 50 -71 0
50 -72 0
-71 -72 0
-50 71 72 0
c gate 73 -46 -72 0
-46 -73 0
-72 -73 0
46 72 73 0
c gate 74 -45 73 0
-45 -74 0
73 -74 0
45 -73 74 0
c gate 75 -37 -74 0
-37 -75 0
-74 -75 0
37 74 75 0
c gate 76 -42 -75 0
-42 -76 0
-75 -76 0
42 75 76 0
c gate 77 -36 -76 0
-36 -77 0
-76 -77 0
36 76 77 0
c gate 78 -35 -77 0
-35 -78 0
-77 -78 0
35 77 78 0
c gate 79 35 77 0
35 -79 0
77 -79 0
-35 -77 79 0
c gate 80 -78 -79 0
-78 -80 0
-79 -80 0
78 79 80 0
c gate 81 41 -80 0
41 -81 0
-80 -81 0
-41 80 81 0
c gate 82 -41 80 0
-41 -82 0
80 -82 0
41 -80 82 0
c gate 83 -81 -82 0
-81 -83 0
-82 -83 0
81 82 83 0
c gate 84 16 32 0
16 -84 0
32 -84 0
-16 -32 84 0
c gate 85 -16 -32 0
-16 -85 0
-32 -85 0
16 32 85 0
c gate 86 -84 -85 0
-84 -86 0
-85 -86 0
84 85 86 0
c gate 87 15 31 0
15 -87 0
31 -87 0
-15 -31 87 0
c gate 88 -15 -31 0
-15 -88 0
-31 -88 0
15 31 88 0
c gate 89 -87 -88 0
-87 -89 0
-88 -89 0
87 88 89 0
c gate 90 -14 -30 0
-14 -90 0
-30 -90 0
14 30 90 0
c gate 91 14 30 0
14 -91 0
30 -91 0
-14 -30 91 0
c gate 92 -90 -91 0
-90 -92 0
-91 -92 0
90 91 92 0
c gate 93 13 29 0
13 -93 0
29 -93 0
-13 -29 93 0
c gate 94 12 28 0
12 -94 0
28 -94 0
-12 -28 94 0
c gate 95 -93 -94 0
-93 -95 0
-94 -95 0
93 94 95 0
c gate 96 92 95 0
92 -96 0
95 -96 0
-92 -95 96 0
c gate 97 -90 -96 0
-90 -97 0
-96 -97 0
90 96 97 0
c gate 98 89 97 0
89 -98 0
97 -98 0
-89 -97 98 0
c gate 99 -87 -98 0
-87 -99 0
-98 -99 0
87 98 99 0
c gate 100 86 99 0
86 -100 0
99 -100 0
-86 -99 100 0
c gate 101 -13 -29 0
-13 -101 0
-29 -101 0
13 29 101 0
c gate 102 11 27 0
11 -102 0
27 -102 0
-11 -27 102 0
c gate 103 9 25 0
9 -103 0
25 -103 0
-9 -25 103 0
c gate 104 -34 -103 0
-34 -104 0
-103 -104 0
34 103 104 0
c gate 105 -2 -18 0
-2 -105 0
-18 -105 0
2 18 105 0
c gate 106 3 19 0
3 -106 0
19 -106 0
-3 -19 106 0
c gate 107 105 -106 0
105 -107 0
-106 -107 0
-105 106 107 0
c gate 108 1 17 0
1 -108 0
17 -108 0
-1 -17 108 0
c gate 109 2 18 0
2 -109 0
18 -109 0
-2 -18 109 0
c gate 110 -108 -109 0
-108 -110 0
-109 -110 0
108 109 110 0
c gate 111 -3 -19 0
-3 -111 0
-19 -111 0
3 19 111 0
c gate 112 -110 -111 0
-110 -112 0
-111 -112 0
110 111 112 0
c gate 113 -106 -112 0
-106 -113 0
-112 -113 0
106 112 113 0
c gate 114 -107 -113 0
-107 -114 0
-113 -114 0
107 113 114 0
c gate 115 4 114 0
4 -115 0
114 -115 0
-4 -114 115 0
c gate 116 -20 -115 0
-20 -116 0
-115 -116 0
20 115 116 0
c gate 117 -5 -21 0
-5 -117 0
-21 -117 0
5 21 117 0
c gate 118 -4 -114 0
-4 -118 0
-114 -118 0
4 114 118 0
c gate 119 -117 -118 0
-117 -119 0
-118 -119 0
117 118 119 0
c gate 120 -116 119 0
-116 -120 0
119 -120 0
116 -119 120 0
c gate 121 5 21 0
5 -121 0
21 -121 0
-5 -21 121 0
c gate 122 69 -121 0
69 -122 0
-121 -122 0
-69 121 122 0
c gate 123 -120 122 0
-120 -123 0
122 -123 0
120 -122 123 0
c gate 124 -67 -123 0
-67 -124 0
-123 -124 0
67 123 124 0
c gate 125 -49 -124 0
-49 -125 0
-124 -125 0
49 124 125 0
c gate 126 45 125 0
45 -126 0
125 -126 0
-45 -125 126 0
c gate 127 -7 -23 0
-7 -127 0
-23 -127 0
7 23 127 0
c gate 128 -44 127 0
-44 -128 0
127 -128 0
44 -127 128 0
c gate 129 -9 -25 0
-9 -129 0
-25 -129 0
9 25 129 0
c gate 130 -43 -129 0
-43 -130 0
-129 -130 0
43 129 130 0
c gate 131 -128 130 0
-128 -131 0
130 -131 0
128 -130 131 0
c gate 132 -126 131 0
-126 -132 0
131 -132 0
126 -131 132 0
c gate 133 104 -132 0
104 -133 0
-132 -133 0
-104 132 133 0
c gate 134 -33 -133 0
-33 -134 0
-133 -134 0
33 133 134 0
c gate 135 -102 -134 0
-102 -135 0
-134 -135 0
102 134 135 0
c gate 136 -11 -27 0
-11 -136 0
-27 -136 0
11 27 136 0
c gate 137 -12 -28 0
-12 -137 0
-28 -137 0
12 28 137 0
c gate 138 -94 -137 0
-94 -138 0
-137 -138 0
94 137 138 0
c gate 139 -136 138 0
-136 -139 0
138 -139 0
136 -138 139 0
c gate 140 -135 139 0
-135 -140 0
139 -140 0
135 -139 140 0
c gate 141 95 -140 0
95 -141 0
-140 -141 0
-95 140 141 0
c gate 142 -101 -141 0
-101 -142 0
-141 -142 0
101 141 142 0
c gate 143 92 -142 0
92 -143 0
-142 -143 0
-92 142 143 0
c gate 144 -90 -143 0
-90 -144 0
-143 -144 0
90 143 144 0
c gate 145 89 -144 0
89 -145 0
-144 -145 0
-89 144 145 0
c gate 146 -88 -145 0
-88 -146 0
-145 -146 0
88 145 146 0
c gate 147 100 146 0
100 -147 0
146 -147 0
-100 -146 147 0
c gate 148 -71 -147 0
-71 -148 0
-147 -148 0
71 147 148 0
c gate 149 -92 -95 0
-92 -149 0
-95 -149 0
92 95 149 0
c gate 150 -96 -149 0
-96 -150 0
-149 -150 0
96 149 150 0
c gate 151 -92 142 0
-92 -151 0
142 -151 0
92 -142 151 0
c gate 152 -143 -151 0
-143 -152 0
-151 -152 0
143 151 152 0
c gate 153 -150 152 0
-150 -153 0
152 -153 0
150 -152 153 0
c gate 154 150 -152 0
150 -154 0
-152 -154 0
-150 152 154 0
c gate 155 -153 -154 0
-153 -155 0
-154 -155 0
153 154 155 0
c gate 156 104 -131 0
104 -156 0
-131 -156 0
-104 131 156 0
c gate 157 -33 139 0
-33 -157 0
139 -157 0
33 -139 157 0
c gate 158 -156 157 0
-156 -158 0
157 -158 0
156 -157 158 0
c gate 159 135 158 0
135 -159 0
158 -159 0
-135 -158 159 0
c gate 160 155 159 0
155 -160 0
159 -160 0
-155 -159 160 0
c gate 161 86 -146 0
86 -161 0
-146 -161 0
-86 146 161 0
c gate 162 -86 146 0
-86 -162 0
146 -162 0
86 -146 162 0
c gate 163 -161 -162 0
-161 -163 0
-162 -163 0
161 162 163 0
c gate 164 -86 -99 0
-86 -164 0
-99 -164 0
86 99 164 0
c gate 165 -100 -164 0
-100 -165 0
-164 -165 0
100 164 165 0
c gate 166 -163 165 0
-163 -166 0
165 -166 0
163 -165 166 0
c gate 167 163 -165 0
163 -167 0
-165 -167 0
-163 165 167 0
c gate 168 -89 -97 0
-89 -168 0
-97 -168 0
89 97 168 0
c gate 169 -98 -168 0
-98 -169 0
-168 -169 0
98 168 169 0
c gate 170 -89 144 0
-89 -170 0
144 -170 0
89 -144 170 0
c gate 171 -145 -170 0
-145 -171 0
-170 -171 0
145 170 171 0
c gate 172 -169 -171 0
-169 -172 0
-171 -172 0
169 171 172 0
c gate 173 169 171 0
169 -173 0
171 -173 0
-169 -171 173 0
c gate 174 -93 -101 0
-93 -174 0
-101 -174 0
93 101 174 0
c gate 175 140 -174 0
140 -175 0
-174 -175 0
-140 174 175 0
c gate 176 -154 -175 0
-154 -176 0
-175 -176 0
154 175 176 0
c gate 177 -173 -176 0
-173 -177 0
-176 -177 0
173 176 177 0
c gate 178 -172 -177 0
-172 -178 0
-177 -178 0
172 177 178 0
c gate 179 -167 -178 0
-167 -179 0
-178 -179 0
167 178 179 0
c gate 180 -166 -179 0
-166 -180 0
-179 -180 0
166 179 180 0
c gate 181 -160 180 0
-160 -181 0
180 -181 0
160 -180 181 0
c gate 182 -126 -140 0
-126 -182 0
-140 -182 0
126 140 182 0
c gate 183 155 182 0
155 -183 0
182 -183 0
-155 -182 183 0
c gate 184 -181 -183 0
-181 -184 0
-183 -184 0
181 183 184 0
c gate 185 148 184 0
148 -185 0
184 -185 0
-148 -184 185 0
c gate 186 -49 71 0
-49 -186 0
71 -186 0
49 -71 186 0
c gate 187 -71 -84 0
-71 -187 0
-84 -187 0
71 84 187 0
c gate 188 -100 187 0
-100 -188 0
187 -188 0
100 -187 188 0
c gate 189 161 188 0
161 -189 0
188 -189 0
-161 -188 189 0
c gate 190 -186 -189 0
-186 -190 0
-189 -190 0
186 189 190 0
c gate 191 -185 190 0
-185 -191 0
190 -191 0
185 -190 191 0
c gate 192 45 50 0
45 -192 0
50 -192 0
-45 -50 192 0
c gate 193 73 192 0
73 -193 0
192 -193 0
-73 -192 193 0
c gate 194 191 -193 0
191 -194 0
-193 -194 0
-191 193 194 0
c gate 195 -74 -194 0
-74 -195 0
-194 -195 0
74 194 195 0
c gate 196 -36 -42 0
-36 -196 0
-42 -196 0
36 42 196 0
c gate 197 74 -196 0
74 -197 0
-196 -197 0
-74 196 197 0
c gate 198 -195 -197 0
-195 -198 0
-197 -198 0
195 197 198 0
c gate 199 10 -26 0
10 -199 0
-26 -199 0
-10 26 199 0
c gate 200 -78 -199 0
-78 -200 0
-199 -200 0
78 199 200 0
c gate 201 -102 -136 0
-102 -201 0
-136 -201 0
102 136 201 0
c gate 202 200 -201 0
200 -202 0
-201 -202 0
-200 201 202 0
c gate 203 -86 -92 0
-86 -203 0
-92 -203 0
86 92 203 0
c gate 204 -89 -174 0
-89 -204 0
-174 -204 0
89 174 204 0
c gate 205 -138 204 0
-138 -205 0
204 -205 0
138 -204 205 0
c gate 206 203 205 0
203 -206 0
205 -206 0
-203 -205 206 0
c gate 207 202 206 0
202 -207 0
206 -207 0
-202 -206 207 0
c gate 208 -200 201 0
-200 -208 0
201 -208 0
200 -201 208 0
c gate 209 -202 -208 0
-202 -209 0
-208 -209 0
202 208 209 0
c gate 210 -39 -199 0
-39 -210 0
-199 -210 0
39 199 210 0
c gate 211 201 -210 0
201 -211 0
-210 -211 0
-201 210 211 0
c gate 212 -209 -211 0
-209 -212 0
-211 -212 0
209 211 212 0
c gate 213 -82 198 0
-82 -213 0
198 -213 0
82 -198 213 0
c gate 214 -81 -213 0
-81 -214 0
-213 -214 0
81 213 214 0
c gate 215 -212 -214 0
-212 -215 0
-214 -215 0
212 214 215 0
c gate 216 200 211 0
200 -216 0
211 -216 0
-200 -211 216 0
c gate 217 -202 -216 0
-202 -217 0
-216 -217 0
202 216 217 0
c gate 218 -215 217 0
-215 -218 0
217 -218 0
215 -217 218 0
c gate 219 -207 -218 0
-207 -219 0
-218 -219 0
207 218 219 0
c gate 220 -198 219 0
-198 -220 0
219 -220 0
198 -219 220 0
c gate 221 -74 -193 0
-74 -221 0
-193 -221 0
74 193 221 0
c gate 222 -191 219 0
-191 -222 0
219 -222 0
191 -219 222 0
c gate 223 105 108 0
105 -223 0
108 -223 0
-105 -108 223 0
c gate 224 -123 -223 0
-123 -224 0
-223 -224 0
123 223 224 0
c gate 225 -125 224 0
-125 -225 0
224 -225 0
125 -224 225 0
c gate 226 -159 -225 0
-159 -226 0
-225 -226 0
159 225 226 0
c gate 227 -140 -226 0
-140 -227 0
-226 -227 0
140 226 227 0
c gate 228 155 227 0
155 -228 0
227 -228 0
-155 -227 228 0
c gate 229 180 -228 0
180 -229 0
-228 -229 0
-180 228 229 0
c gate 230 148 -229 0
148 -230 0
-229 -230 0
-148 229 230 0
c gate 231 190 -230 0
190 -231 0
-230 -231 0
-190 230 231 0
c gate 232 -219 231 0
-219 -232 0
231 -232 0
219 -231 232 0
c gate 233 -222 -232 0
-222 -233 0
-232 -233 0
222 232 233 0
c gate 234 221 233 0
221 -234 0
233 -234 0
-221 -233 234 0
c gate 235 -193 -197 0
-193 -235 0
-197 -235 0
193 197 235 0
c gate 236 -219 235 0
-219 -236 0
235 -236 0
219 -235 236 0
c gate 237 -234 236 0
-234 -237 0
236 -237 0
234 -236 237 0
c gate 238 -220 -237 0
-220 -238 0
-237 -238 0
220 237 238 0
c gate 239 83 238 0
83 -239 0
238 -239 0
-83 -238 239 0
c gate 240 -82 -219 0
-82 -240 0
-219 -240 0
82 219 240 0
c gate 241 -239 240 0
-239 -241 0
240 -241 0
239 -240 241 0
c gate 242 214 219 0
214 -242 0
219 -242 0
-214 -219 242 0
c gate 243 -212 -216 0
-212 -243 0
-216 -243 0
212 216 243 0
c gate 244 -242 -243 0
-242 -244 0
-243 -244 0
242 243 244 0
c gate 245 -241 244 0
-241 -245 0
244 -245 0
241 -244 245 0
c PO
245 0
